1 - 0
2 - 0
3 - 0
4 - 0
5 - 0
6 - 0
7 - 0
8 - 0
9 - 0
10 - 0
11 - 0
12 - 0
13 - 0
14 - 0
15 - 0
16 - 0
17 - 0
18 - 0
19 - 0
20 - 0
21 - 0
22 - 0
23 - 0
24 - 0
25 - 0
26 - 0
27 - 0
28 - 0
29 - 0
30 - 0
31 - 0
32 - 0
33 - 0
34 - 0
35 - 0
36 - 0
37 - 0
38 - 0
39 - 0
40 - 0
41 - 0
42 - 0
43 - 0
44 - 0
45 - 0
46 - 0
47 - 0
48 - 0
49 - 0
50 - 0
51 - 0
52 - 0
53 - 0
54 - 0
55 - 0
56 - 0
57 - 0
58 - 0
59 - 0
60 - 0
61 - 1
62 - 3
63 - 5
64 - 14
65 - 29
66 - 41
67 - 54
68 - 70
69 - 78
70 - 86
71 - 72
72 - 77
73 - 74
74 - 72
75 - 60
76 - 60
77 - 62
78 - 66
79 - 62
80 - 71
81 - 74
82 - 92
83 - 97
84 - 94
85 - 105
86 - 120
87 - 96
88 - 141
89 - 145
90 - 158
91 - 165
92 - 157
93 - 182
94 - 181
95 - 202
96 - 238
97 - 257
98 - 249
99 - 293
100 - 310
101 - 308
102 - 366
103 - 371
104 - 391
105 - 415
106 - 430
107 - 494
108 - 541
109 - 586
110 - 632
111 - 661
112 - 762
113 - 851
114 - 874
115 - 991
116 - 1152
117 - 1257
118 - 1360
119 - 1502
120 - 1626
121 - 1751
122 - 2014
123 - 2069
124 - 2201
125 - 2455
126 - 2579
127 - 2980
128 - 2984
129 - 3138
130 - 3374
131 - 3540
132 - 3502
133 - 3769
134 - 3900
135 - 4012
136 - 4047
137 - 3935
138 - 3941
139 - 3974
140 - 3795
141 - 3660
142 - 3412
143 - 3069
144 - 2649
145 - 2359
146 - 1969
147 - 1547
148 - 1013
149 - 523
150 - 0

0.1 - 10268
0.2 - 10418
0.3 - 10534
0.4 - 10474
0.5 - 10423
0.6 - 10429
0.7 - 10387
0.8 - 10354
0.9 - 10409
1 - 10448
